TOUR_SECTION
176
172
55
26
189
1
6
27
100
30
15
104
131
33
60
193
121
166
35
96
58
119
84
99
198
38
56
136
185
18
95
169
117
85
102
9
20
124
103
158
177
45
173
76
140
106
68
36
186
53
127
83
57
139
157
25
70
137
7
78
144
148
12
23
146
86
64
195
110
8
118
150
174
154
182
122
183
61
153
116
165
105
63
82
43
200
41
72
115
128
89
44
93
32
168
138
5
155
107
49
112
37
3
164
69
184
196
48
123
11
73
191
188
94
19
34
21
159
22
181
97
160
194
151
147
88
175
71
16
156
52
101
4
75
161
170
187
126
113
98
199
10
54
79
167
163
59
129
80
171
87
149
114
133
50
141
111
40
28
190
13
197
142
192
130
180
179
145
132
74
17
125
31
120
162
2
67
92
24
51
134
47
81
152
14
135
62
29
39
108
77
46
65
42
90
66
143
91
109
178
-1
EOF